(set-option :produce-models true); benchmark generated from python API
(set-info :status unknown)
(declare-fun l_1_0_4 () Real)
(declare-fun l_1_0_3 () Real)
(declare-fun l_1_0_2 () Real)
(declare-fun _a_1_ () Real)
(declare-fun l_1_0_5 () Real)
(declare-fun l_1_0_1 () Real)
(declare-fun l_1_0_6 () Real)
(declare-fun l_1_1_9 () Real)
(declare-fun l_1_1_8 () Real)
(declare-fun l_1_1_6 () Real)
(declare-fun l_1_1_4 () Real)
(declare-fun l_1_1_3 () Real)
(declare-fun l_1_1_15 () Real)
(declare-fun l_1_1_14 () Real)
(declare-fun l_1_1_12 () Real)
(declare-fun l_1_1_10 () Real)
(declare-fun l_1_1_1 () Real)
(declare-fun l_1_1_7 () Real)
(declare-fun l_1_1_5 () Real)
(declare-fun l_1_1_2 () Real)
(declare-fun l_1_1_13 () Real)
(declare-fun l_1_1_11 () Real)
(declare-fun _a_5_ () Real)
(declare-fun _a_3_ () Real)
(declare-fun _a_0_ () Real)
(declare-fun l_1_1_19 () Real)
(declare-fun l_1_1_17 () Real)
(declare-fun l_1_1_18 () Real)
(declare-fun l_1_1_16 () Real)
(declare-fun _a_2_ () Real)
(declare-fun l_1_1_20 () Real)
(declare-fun _a_4_ () Real)
(declare-fun l_1_2_4 () Real)
(declare-fun l_1_2_19 () Real)
(declare-fun l_1_2_17 () Real)
(declare-fun l_1_2_18 () Real)
(declare-fun l_1_2_16 () Real)
(declare-fun l_1_2_9 () Real)
(declare-fun l_1_2_6 () Real)
(declare-fun l_1_2_2 () Real)
(declare-fun l_1_2_11 () Real)
(declare-fun l_1_2_1 () Real)
(declare-fun l_1_2_15 () Real)
(declare-fun l_1_2_8 () Real)
(declare-fun l_1_2_7 () Real)
(declare-fun l_1_2_5 () Real)
(declare-fun l_1_2_3 () Real)
(declare-fun l_1_2_14 () Real)
(declare-fun l_1_2_13 () Real)
(declare-fun l_1_2_12 () Real)
(declare-fun l_1_2_10 () Real)
(declare-fun l_1_2_20 () Real)
(assert
 (= (- (- (- _a_1_ l_1_0_2) l_1_0_3) (* l_1_0_4 l_1_0_4)) 0.0))
(assert
 (= (- (- l_1_0_1) (* (* 2.0 l_1_0_4) l_1_0_5)) 0.0))
(assert
 (= (- (* (- l_1_0_5) l_1_0_5) (* l_1_0_6 l_1_0_6)) 0.0))
(assert
 (>= l_1_0_1 0.0))
(assert
 (>= l_1_0_2 0.0))
(assert
 (>= l_1_0_3 0.0))
(assert
 (>= l_1_0_4 0.0))
(assert
 (>= l_1_0_6 0.0))
(assert
 (let ((?x1012 (* l_1_1_15 l_1_1_15)))
 (let ((?x1006 (* _a_1_ l_1_1_7)))
 (let ((?x247 (* _a_1_ l_1_1_5)))
 (let ((?x1004 (+ (+ (* (- _a_1_) l_1_1_11) (* (* 1.0 _a_1_) l_1_1_13)) (* (* 1.0 _a_1_) l_1_1_2))))
 (let ((?x1011 (- (- (- (- (- (- ?x1004 ?x247) ?x1006) l_1_1_1) l_1_1_10) l_1_1_12) l_1_1_14)))
 (let ((?x960 (- (- (- ?x1011 ?x1012) (* 1.0 l_1_1_3)) (* (* l_1_1_4 _a_1_) _a_1_))))
 (let ((?x901 (+ (+ (+ ?x960 (* 1.0 l_1_1_6)) (* 1.0 l_1_1_8)) (* 1.0 l_1_1_9))))
 (= (+ ?x901 1.0) 0.0)))))))))
(assert
 (let ((?x823 (+ (* (* 2.0 _a_0_) _a_1_) (* (* 2.0 _a_3_) _a_5_))))
 (let ((?x812 (* _a_0_ l_1_1_7)))
 (let ((?x41 (* _a_0_ l_1_1_5)))
 (let ((?x810 (+ (+ (* (- _a_0_) l_1_1_11) (* (* 1.0 _a_0_) l_1_1_13)) (* (* 1.0 _a_0_) l_1_1_2))))
 (let ((?x47 (- (- (- (- ?x810 ?x41) ?x812) (* (* 2.0 l_1_1_16) l_1_1_18)) (* (* 2.0 l_1_1_17) l_1_1_19))))
 (= (- ?x47 (* l_1_1_4 ?x823)) 0.0)))))))
(assert
 (let ((?x199 (* l_1_1_20 l_1_1_20)))
 (let ((?x628 (* l_1_1_19 l_1_1_19)))
 (let ((?x629 (* l_1_1_18 l_1_1_18)))
 (let ((?x630 (* _a_2_ l_1_1_7)))
 (let ((?x631 (* _a_2_ l_1_1_5)))
 (let ((?x19 (+ (+ (* (- _a_2_) l_1_1_11) (* (* 1.0 _a_2_) l_1_1_13)) (* (* 1.0 _a_2_) l_1_1_2))))
 (let ((?x599 (- (- (- (- (- (- ?x19 ?x631) ?x630) ?x629) ?x628) ?x199) (* l_1_1_4 (+ (* (* 2.0 _a_1_) _a_2_) (* _a_5_ _a_5_))))))
 (= ?x599 0.0)))))))))
(assert
 (let ((?x475 (* _a_3_ l_1_1_7)))
 (let ((?x20 (* _a_3_ l_1_1_5)))
 (let ((?x468 (* _a_3_ l_1_1_11)))
 (let ((?x471 (+ (- (* (* (* (- 2.0) _a_1_) _a_3_) l_1_1_4) ?x468) (* (* 1.0 _a_3_) l_1_1_13))))
 (let ((?x479 (- (- (- (+ ?x471 (* (* 1.0 _a_3_) l_1_1_2)) ?x20) ?x475) (* (* 2.0 l_1_1_15) l_1_1_16))))
 (= ?x479 0.0)))))))
(assert
 (let ((?x306 (* l_1_1_17 l_1_1_17)))
 (let ((?x338 (* l_1_1_16 l_1_1_16)))
 (let ((?x336 (* _a_4_ l_1_1_7)))
 (let ((?x334 (* _a_4_ l_1_1_5)))
 (let ((?x378 (+ (+ (* (- _a_4_) l_1_1_11) (* (* 1.0 _a_4_) l_1_1_13)) (* (* 1.0 _a_4_) l_1_1_2))))
 (let ((?x248 (- (- (- (- (- ?x378 ?x334) ?x336) ?x338) ?x306) (* l_1_1_4 (+ (* (* 2.0 _a_1_) _a_4_) (* _a_3_ _a_3_))))))
 (= ?x248 0.0))))))))
(assert
 (let ((?x891 (* _a_5_ l_1_1_7)))
 (let ((?x51 (* _a_5_ l_1_1_5)))
 (let ((?x12 (* _a_5_ l_1_1_11)))
 (let ((?x74 (+ (- (* (* (* (- 2.0) _a_1_) _a_5_) l_1_1_4) ?x12) (* (* 1.0 _a_5_) l_1_1_13))))
 (let ((?x890 (- (- (- (+ ?x74 (* (* 1.0 _a_5_) l_1_1_2)) ?x51) ?x891) (* (* 2.0 l_1_1_15) l_1_1_18))))
 (= ?x890 0.0)))))))
(assert
 (let ((?x671 (* _a_0_ _a_0_)))
 (let ((?x1041 (+ ?x671 (* (* 2.0 _a_2_) _a_4_))))
 (let ((?x1039 (- l_1_1_4)))
 (= (* ?x1039 ?x1041) 0.0)))))
(assert
 (= (* (* (* (- 2.0) _a_0_) _a_2_) l_1_1_4) 0.0))
(assert
 (let ((?x707 (+ (* (* 2.0 _a_0_) _a_3_) (* (* 2.0 _a_4_) _a_5_))))
 (let ((?x1039 (- l_1_1_4)))
 (= (* ?x1039 ?x707) 0.0))))
(assert
 (= (* (* (* (- 2.0) _a_0_) _a_4_) l_1_1_4) 0.0))
(assert
 (let ((?x319 (+ (* (* 2.0 _a_0_) _a_5_) (* (* 2.0 _a_2_) _a_3_))))
 (let ((?x1039 (- l_1_1_4)))
 (= (* ?x1039 ?x319) 0.0))))
(assert
 (= (* (* (- l_1_1_4) _a_2_) _a_2_) 0.0))
(assert
 (= (* (* (* (- 2.0) _a_2_) _a_5_) l_1_1_4) 0.0))
(assert
 (= (* (* (* (- 2.0) _a_3_) _a_4_) l_1_1_4) 0.0))
(assert
 (= (* (* (- l_1_1_4) _a_4_) _a_4_) 0.0))
(assert
 (>= l_1_1_1 0.0))
(assert
 (>= l_1_1_2 0.0))
(assert
 (>= l_1_1_3 0.0))
(assert
 (>= l_1_1_4 0.0))
(assert
 (>= l_1_1_5 0.0))
(assert
 (>= l_1_1_6 0.0))
(assert
 (>= l_1_1_7 0.0))
(assert
 (>= l_1_1_8 0.0))
(assert
 (>= l_1_1_9 0.0))
(assert
 (>= l_1_1_10 0.0))
(assert
 (>= l_1_1_11 0.0))
(assert
 (>= l_1_1_12 0.0))
(assert
 (>= l_1_1_13 0.0))
(assert
 (>= l_1_1_14 0.0))
(assert
 (>= l_1_1_15 0.0))
(assert
 (>= l_1_1_17 0.0))
(assert
 (>= l_1_1_20 0.0))
(assert
 (let ((?x823 (+ (* (* 2.0 _a_0_) _a_1_) (* (* 2.0 _a_3_) _a_5_))))
 (let ((?x223 (* _a_0_ l_1_2_9)))
 (let ((?x888 (* _a_0_ l_1_2_2)))
 (let ((?x944 (- (- (- (* (* (- 1.0) _a_0_) l_1_2_1) (* _a_0_ l_1_2_11)) ?x888) (* (* 1.0 _a_0_) l_1_2_6))))
 (let ((?x554 (- (- (+ (- ?x944 ?x223) _a_0_) (* (* 2.0 l_1_2_16) l_1_2_18)) (* (* 2.0 l_1_2_17) l_1_2_19))))
 (= (- ?x554 (* l_1_2_4 ?x823)) 0.0)))))))
(assert
 (= _a_0_ 0.0))
(assert
 (let ((?x826 (* _a_3_ l_1_2_9)))
 (let ((?x856 (* _a_3_ l_1_2_2)))
 (let ((?x569 (* _a_3_ l_1_2_11)))
 (let ((?x568 (- (- (* 1.0 _a_0_) (* (* (* 2.0 _a_1_) _a_3_) l_1_2_4)) (* (* 1.0 _a_3_) l_1_2_1))))
 (let ((?x827 (- (- (- (- ?x568 ?x569) ?x856) (* (* 1.0 _a_3_) l_1_2_6)) ?x826)))
 (= (- (+ ?x827 _a_3_) (* (* 2.0 l_1_2_15) l_1_2_16)) 0.0)))))))
(assert
 (= (+ (* 1.0 _a_0_) _a_3_) 0.0))
(assert
 (let ((?x351 (* l_1_2_15 l_1_2_15)))
 (let ((?x11 (* 1.0 _a_5_)))
 (let ((?x24 (* 1.0 _a_2_)))
 (let ((?x137 (* _a_1_ l_1_2_9)))
 (let ((?x133 (* _a_1_ l_1_2_2)))
 (let ((?x341 (- (- (- (* (* (- 1.0) _a_1_) l_1_2_1) (* _a_1_ l_1_2_11)) ?x133) (* (* 1.0 _a_1_) l_1_2_6))))
 (let ((?x349 (- (+ (+ (+ (- ?x341 ?x137) _a_1_) ?x24) ?x11) (* 1.0 l_1_2_10))))
 (let ((?x843 (- (- (- (- (- ?x349 l_1_2_12) (* 1.0 l_1_2_13)) l_1_2_14) ?x351) l_1_2_3)))
 (let ((?x1213 (- (- (- ?x843 (* (* l_1_2_4 _a_1_) _a_1_)) (* 1.0 l_1_2_5)) (* 1.0 l_1_2_7))))
 (= (- ?x1213 l_1_2_8) 0.0)))))))))))
(assert
 (let ((?x587 (* l_1_2_20 l_1_2_20)))
 (let ((?x930 (* l_1_2_19 l_1_2_19)))
 (let ((?x857 (* l_1_2_18 l_1_2_18)))
 (let ((?x753 (* _a_2_ l_1_2_9)))
 (let ((?x863 (* _a_2_ l_1_2_2)))
 (let ((?x751 (- (- (- (* (* (- 1.0) _a_2_) l_1_2_1) (* _a_2_ l_1_2_11)) ?x863) (* (* 1.0 _a_2_) l_1_2_6))))
 (let ((?x170 (- (- (- (- (+ (- ?x751 ?x753) _a_2_) ?x857) ?x930) ?x587) (* l_1_2_4 (+ (* (* 2.0 _a_1_) _a_2_) (* _a_5_ _a_5_))))))
 (= ?x170 0.0)))))))))
(assert
 (let ((?x1015 (* _a_5_ l_1_2_9)))
 (let ((?x927 (* _a_5_ l_1_2_2)))
 (let ((?x923 (* _a_5_ l_1_2_11)))
 (let ((?x295 (- (+ (* (* (* (- 2.0) _a_1_) _a_5_) l_1_2_4) (* 2.0 _a_2_)) (* (* 1.0 _a_5_) l_1_2_1))))
 (let ((?x1016 (- (- (- (- ?x295 ?x923) ?x927) (* (* 1.0 _a_5_) l_1_2_6)) ?x1015)))
 (= (- (+ ?x1016 _a_5_) (* (* 2.0 l_1_2_15) l_1_2_18)) 0.0)))))))
(assert
 (let ((?x1197 (* l_1_2_17 l_1_2_17)))
 (let ((?x297 (* l_1_2_16 l_1_2_16)))
 (let ((?x93 (* _a_4_ l_1_2_9)))
 (let ((?x92 (* _a_4_ l_1_2_2)))
 (let ((?x96 (- (- (- (* (* (- 1.0) _a_4_) l_1_2_1) (* _a_4_ l_1_2_11)) ?x92) (* (* 1.0 _a_4_) l_1_2_6))))
 (let ((?x1200 (- (- (- (+ (- ?x96 ?x93) _a_4_) ?x297) ?x1197) (* l_1_2_4 (+ (* (* 2.0 _a_1_) _a_4_) (* _a_3_ _a_3_))))))
 (= ?x1200 0.0))))))))
(assert
 (let ((?x698 (* 2.0 _a_4_)))
 (= ?x698 0.0)))
(assert
 (= _a_4_ 0.0))
(assert
 (let ((?x671 (* _a_0_ _a_0_)))
 (let ((?x1041 (+ ?x671 (* (* 2.0 _a_2_) _a_4_))))
 (let ((?x607 (- l_1_2_4)))
 (= (* ?x607 ?x1041) 0.0)))))
(assert
 (= (* (* (* (- 2.0) _a_0_) _a_2_) l_1_2_4) 0.0))
(assert
 (let ((?x707 (+ (* (* 2.0 _a_0_) _a_3_) (* (* 2.0 _a_4_) _a_5_))))
 (let ((?x607 (- l_1_2_4)))
 (= (* ?x607 ?x707) 0.0))))
(assert
 (= (* (* (* (- 2.0) _a_0_) _a_4_) l_1_2_4) 0.0))
(assert
 (let ((?x319 (+ (* (* 2.0 _a_0_) _a_5_) (* (* 2.0 _a_2_) _a_3_))))
 (let ((?x607 (- l_1_2_4)))
 (= (* ?x607 ?x319) 0.0))))
(assert
 (= (* (* (- l_1_2_4) _a_2_) _a_2_) 0.0))
(assert
 (= (* (* (* (- 2.0) _a_2_) _a_5_) l_1_2_4) 0.0))
(assert
 (= (* (* (* (- 2.0) _a_3_) _a_4_) l_1_2_4) 0.0))
(assert
 (= (* (* (- l_1_2_4) _a_4_) _a_4_) 0.0))
(assert
 (>= l_1_2_1 0.0))
(assert
 (>= l_1_2_2 0.0))
(assert
 (>= l_1_2_3 0.0))
(assert
 (>= l_1_2_4 0.0))
(assert
 (>= l_1_2_5 0.0))
(assert
 (>= l_1_2_6 0.0))
(assert
 (>= l_1_2_7 0.0))
(assert
 (>= l_1_2_8 0.0))
(assert
 (>= l_1_2_9 0.0))
(assert
 (>= l_1_2_10 0.0))
(assert
 (>= l_1_2_11 0.0))
(assert
 (>= l_1_2_12 0.0))
(assert
 (>= l_1_2_13 0.0))
(assert
 (>= l_1_2_14 0.0))
(assert
 (>= l_1_2_15 0.0))
(assert
 (>= l_1_2_17 0.0))
(assert
 (>= l_1_2_20 0.0))
(check-sat)
(get-model)